5,3	0,0	17,9	9,8	0,0	0,0	0,0	0,0	0,0	12,1
7,4	5,2	0,0	7,8	18,2	0,0	0,0	10,3	0,0	0,0
0,0	0,0	7,8	0,0	18,3	14,1	0,0	0,0	13,0	0,0
8,6	0,0	5,4	0,0	0,0	0,0	9,5	0,0	0,0	0,0
0,0	8,6	0,0	15,3	16,1	0,0	0,0	10,9	0,0	0,0
0,0	7,1	5,5	0,0	18,3	13,3	0,0	0,0	13,2	0,0
0,0	6,5	0,0	5,7	0,0	0,0	6,7	0,0	0,0	8,2
5,7	0,0	8,0	0,0	0,0	0,0	0,0	0,0	0,0	16,1
0,0	6,1	0,0	9,4	7,1	0,0	0,0	16,7	0,0	0,0
0,0	0,0	17,3	0,0	0,0	10,4	13,3	0,0	0,0	9,6
0,0	19,5	0,0	0,0	8,3	0,0	19,0	0,0	16,5	5,1
7,0	0,0	15,2	0,0	19,3	0,0	11,8	13,2	9,5	0,0
0,0	19,8	0,0	0,0	0,0	10,5	0,0	12,3	5,5	17,5
19,1	5,9	19,1	0,0	0,0	15,2	0,0	8,5	8,5	0,0
7,4	0,0	6,1	0,0	13,6	5,8	11,5	19,3	0,0	0,0
0,0	15,3	0,0	17,4	0,0	8,9	0,0	18,0	0,0	0,0
18,6	0,0	15,1	12,8	5,5	0,0	0,0	18,5	0,0	0,0
0,0	0,0	5,1	0,0	0,0	10,8	7,2	0,0	11,3	5,1
6,2	0,0	0,0	15,3	6,3	17,8	7,7	18,6	0,0	10,6
0,0	10,5	0,0	16,1	0,0	0,0	15,2	0,0	9,5	12,7
									
3,3	3,1	3,1	5,0	2,7	4,2	3,5	4,4	3,0	4,2
